(set-info :origin "SVCOMP13 benchmarks generated by Arie Gurfinkel")
(set-info :status sat)
(set-logic HORN)
(declare-fun cp-rel-entry () Bool)
(declare-fun cp-rel-bb2.i.i34.i.i () Bool)
(declare-fun cp-rel-bb1.i.i (Real Real Real Real Real) Bool)
(assert |cp-rel-entry|)
(assert (forall ((?A Real) (?B Real) (?C Real) (?D Real) (?E Real) (?F Bool) )(let (($x368938 (and |cp-rel-entry| (<= ?E 0.0) (>= ?D 1.0) (<= ?D 1.0) (>= ?C 0.0) (<= ?C 0.0) (>= ?B 1.0) (<= ?B 1.0) (>= ?A 0.0) (<= ?A 0.0) (= ?F true) (>= ?E 0.0))))
(=> $x368938 (|cp-rel-bb1.i.i| ?A ?B ?C ?D ?E))))
)
(assert (forall ((?A Real) (?B Real) (?C Real) (?D Real) (?E Real) (?F Real) (?G Real) (?H Real) (?I Real) (?J Real) (?K Bool) (?L Bool) (?M Bool) (?N Bool) (?O Bool) (?P Bool) (?Q Real) (?R Real) (?S Bool) (?T Bool) (?U Bool) (?V Bool) (?W Bool) (?X Bool) (?Y Real) (?Z Real) (?A1 Bool) (?B1 Bool) (?C1 Bool) (?D1 Bool) (?E1 Bool) (?F1 Bool) (?G1 Bool) (?H1 Bool) (?I1 Bool) (?J1 Bool) (?K1 Bool) (?L1 Bool) (?M1 Bool) (?N1 Real) (?O1 Real) (?P1 Bool) (?Q1 Bool) (?R1 Bool) (?S1 Bool) (?T1 Bool) (?U1 Bool) (?V1 Bool) (?W1 Bool) (?X1 Bool) (?Y1 Bool) (?Z1 Bool) (?A2 Bool) (?B2 Bool) (?C2 Bool) (?D2 Bool) (?E2 Bool) (?F2 Real) (?G2 Real) (?H2 Real) (?I2 Real) (?J2 Bool) (?K2 Bool) (?L2 Bool) (?M2 Bool) (?N2 Bool) (?O2 Bool) (?P2 Bool) (?Q2 Bool) (?R2 Bool) (?S2 Real) (?T2 Bool) (?U2 Real) (?V2 Real) (?W2 Bool) (?X2 Real) (?Y2 Real) (?Z2 Bool) (?A3 Real) (?B3 Bool) (?C3 Bool) (?D3 Bool) )(let (($x865308 (|cp-rel-bb1.i.i| ?F ?G ?H ?I ?J)))
(let (($x86256 (or (not ?K) (and ?L ?M (not ?N)))))
(let (($x628228 (or (not ?K) ?M)))
(let (($x580267 (not ?O)))
(let (($x571456 (or $x580267 (and ?K ?P (<= ?Q ?R) (>= ?Q ?R)) (and ?L ?S ?N (<= ?Q ?B) (>= ?Q ?B)))))
(let (($x222102 (or $x580267 (and ?P (not ?S)) (and ?S (not ?P)))))
(let (($x99963 (or (not ?T) (and ?O ?U (not ?V)))))
(let (($x416309 (or (not ?T) ?U)))
(let (($x329077 (not ?W)))
(let (($x206450 (or $x329077 (and ?T ?X (<= ?Y ?Z) (>= ?Y ?Z)) (and ?O ?A1 ?V (<= ?Y ?A) (>= ?Y ?A)))))
(let (($x799199 (or $x329077 (and ?X (not ?A1)) (and ?A1 (not ?X)))))
(let (($x839526 (or (not ?B1) (and ?W ?C1 ?D1))))
(let (($x494111 (or (not ?B1) ?C1)))
(let (($x41271 (or (not ?E1) (and ?B1 ?F1 ?G1) (and ?W ?H1 (not ?D1)))))
(let (($x134245 (or (not ?E1) (and ?F1 (not ?H1)) (and ?H1 (not ?F1)))))
(let (($x137156 (or (not ?I1) (and ?E1 ?J1 (not ?K1)))))
(let (($x895308 (or (not ?I1) ?J1)))
(let (($x330666 (or (not ?L1) (and ?I1 ?M1 (<= ?N1 ?O1) (>= ?N1 ?O1)) (and ?E1 ?P1 ?K1 (<= ?N1 ?Q) (>= ?N1 ?Q)))))
(let (($x865534 (or (not ?L1) (and ?M1 (not ?P1)) (and ?P1 (not ?M1)))))
(let (($x580049 (or (not ?Q1) (and ?L1 ?R1 (not ?S1)))))
(let (($x384147 (or (not ?Q1) ?R1)))
(let (($x783069 (or (not ?T1) (and ?Q1 ?U1 ?K1))))
(let (($x327920 (or (not ?T1) ?U1)))
(let (($x128216 (or (not ?V1) (and ?Q1 ?W1 (not ?K1)))))
(let (($x348003 (or (not ?V1) ?W1)))
(let (($x644287 (or (not ?X1) (and ?T1 ?Y1 ?Z1))))
(let (($x468053 (or (not ?X1) ?Y1)))
(let (($x583990 (or (not ?A2) (and ?V1 ?B2 ?C2))))
(let (($x55849 (or (not ?A2) ?B2)))
(let (($x447998 (>= ?H2 0.0)))
(let (($x905343 (<= ?H2 0.0)))
(let (($x552560 (and ?B1 ?N2 (not ?G1) (<= ?F2 0.0) (>= ?F2 0.0) (<= ?G2 ?Q) (>= ?G2 ?Q) $x905343 $x447998)))
(let (($x373481 (>= ?H2 ?E)))
(let (($x120532 (<= ?H2 ?E)))
(let (($x390067 (>= ?G2 ?N1)))
(let (($x159082 (<= ?G2 ?N1)))
(let (($x42931 (>= ?F2 ?D)))
(let (($x55163 (<= ?F2 ?D)))
(let (($x164682 (not ?D2)))
(let (($x301107 (or $x164682 (and ?X1 ?E2 $x55163 $x42931 $x159082 $x390067 (<= ?H2 ?I2) (>= ?H2 ?I2)) (and ?T1 ?J2 (not ?Z1) $x55163 $x42931 $x159082 $x390067 $x120532 $x373481) (and ?A2 ?K2 $x55163 $x42931 $x159082 $x390067 $x120532 $x373481) (and ?V1 ?L2 (not ?C2) $x55163 $x42931 $x159082 $x390067 $x905343 $x447998) (and ?L1 ?M2 ?S1 $x55163 $x42931 $x159082 $x390067 $x120532 $x373481) $x552560)))
(let (($x546218 (or $x164682 (and ?E2 (not ?J2) (not ?K2) (not ?L2) (not ?M2) (not ?N2)) (and ?J2 (not ?E2) (not ?K2) (not ?L2) (not ?M2) (not ?N2)) (and ?K2 (not ?E2) (not ?J2) (not ?L2) (not ?M2) (not ?N2)) (and ?L2 (not ?E2) (not ?J2) (not ?K2) (not ?M2) (not ?N2)) (and ?M2 (not ?E2) (not ?J2) (not ?K2) (not ?L2) (not ?N2)) (and ?N2 (not ?E2) (not ?J2) (not ?K2) (not ?L2) (not ?M2)))))
(let (($x322063 (or (not ?O2) (and ?D2 ?P2 (not ?Q2)))))
(let (($x546082 (or (not ?O2) ?P2)))
(let (($x159143 (and ?D2 ?Q2 (<= ?F ?Y) (>= ?F ?Y) (<= ?G ?G2) (>= ?G ?G2) (<= ?H 0.0) (>= ?H 0.0) (<= ?I ?F2) (>= ?I ?F2) (<= ?J ?H2) (>= ?J ?H2))))
(let (($x553946 (and ?O2 ?R2 (<= ?F ?Y) (>= ?F ?Y) (<= ?G ?G2) (>= ?G ?G2) (<= ?H 1.0) (>= ?H 1.0) (<= ?I ?F2) (>= ?I ?F2) (<= ?J ?H2) (>= ?J ?H2))))
(let (($x322014 (= ?N (= ?S2 0.0))))
(let (($x585156 (= ?U2 (ite ?T2 1.0 0.0))))
(let (($x437766 (= ?V (= ?V2 0.0))))
(let (($x233770 (= ?Z (ite ?W2 1.0 0.0))))
(let (($x99153 (= ?D1 (= ?X2 0.0))))
(let (($x99355 (= ?G1 (= ?Y2 0.0))))
(let (($x418842 (= ?Z2 (not (<= ?Q 0.0)))))
(let (($x489646 (= ?A3 (+ (~ 1.0) ?Q))))
(let (($x89463 (= ?O1 (ite ?Z2 ?A3 ?Q))))
(let (($x287172 (= ?Z1 (not (<= ?N1 1.0)))))
(let (($x386438 (= ?C2 (= ?N1 0.0))))
(let (($x240613 (= ?B3 (= ?Y 0.0))))
(let (($x463487 (= ?C3 (= ?Y 0.0))))
(let (($x254564 (= ?D3 (= ?H2 0.0))))
(let (($x579632 (= ?Q2 (or ?D3 ?C3))))
(let (($x163119 (and (|cp-rel-bb1.i.i| ?A ?B ?C ?D ?E) $x579632 $x254564 $x463487 (= ?I2 (ite ?B3 1.0 ?E)) $x240613 $x386438 $x287172 (= ?S1 (= ?D 0.0)) $x89463 $x489646 $x418842 (= ?K1 (= ?E 0.0)) $x99355 $x99153 $x233770 (= ?W2 (= ?A 0.0)) $x437766 (= ?R (+ ?U2 ?B)) $x585156 (= ?T2 (not (<= 2.0 ?B))) $x322014 (or $x553946 $x159143) $x546082 $x322063 $x546218 $x301107 $x55849 $x583990 $x468053 $x644287 $x348003 $x128216 $x327920 $x783069 $x384147 $x580049 $x865534 $x330666 $x895308 $x137156 $x134245 $x41271 $x494111 $x839526 $x799199 $x206450 $x416309 $x99963 $x222102 $x571456 $x628228 $x86256 (= ?R2 (= ?C 0.0)))))
(=> $x163119 $x865308)))))))))))))))))))))))))))))))))))))))))))))))))))))))))))))))
)
(assert (forall ((?A Real) (?B Real) (?C Real) (?D Real) (?E Real) (?F Bool) (?G Bool) (?H Bool) (?I Bool) (?J Bool) (?K Bool) (?L Real) (?M Real) (?N Bool) (?O Bool) (?P Bool) (?Q Bool) (?R Bool) (?S Bool) (?T Real) (?U Real) (?V Bool) (?W Bool) (?X Bool) (?Y Bool) (?Z Bool) (?A1 Bool) (?B1 Bool) (?C1 Bool) (?D1 Bool) (?E1 Bool) (?F1 Bool) (?G1 Bool) (?H1 Bool) (?I1 Real) (?J1 Real) (?K1 Bool) (?L1 Bool) (?M1 Bool) (?N1 Bool) (?O1 Bool) (?P1 Bool) (?Q1 Bool) (?R1 Bool) (?S1 Bool) (?T1 Bool) (?U1 Bool) (?V1 Bool) (?W1 Bool) (?X1 Bool) (?Y1 Bool) (?Z1 Bool) (?A2 Real) (?B2 Real) (?C2 Real) (?D2 Real) (?E2 Bool) (?F2 Bool) (?G2 Bool) (?H2 Bool) (?I2 Bool) (?J2 Bool) (?K2 Bool) (?L2 Bool) (?M2 Bool) (?N2 Real) (?O2 Bool) (?P2 Real) (?Q2 Real) (?R2 Bool) (?S2 Real) (?T2 Real) (?U2 Bool) (?V2 Real) (?W2 Bool) (?X2 Bool) (?Y2 Bool) )(let (($x86256 (or (not ?F) (and ?G ?H (not ?I)))))
(let (($x628228 (or (not ?F) ?H)))
(let (($x580267 (not ?J)))
(let (($x166831 (or $x580267 (and ?F ?K (<= ?L ?M) (>= ?L ?M)) (and ?G ?N ?I (<= ?L ?B) (>= ?L ?B)))))
(let (($x222102 (or $x580267 (and ?K (not ?N)) (and ?N (not ?K)))))
(let (($x99963 (or (not ?O) (and ?J ?P (not ?Q)))))
(let (($x416309 (or (not ?O) ?P)))
(let (($x329077 (not ?R)))
(let (($x313844 (or $x329077 (and ?O ?S (<= ?T ?U) (>= ?T ?U)) (and ?J ?V ?Q (<= ?T ?A) (>= ?T ?A)))))
(let (($x799199 (or $x329077 (and ?S (not ?V)) (and ?V (not ?S)))))
(let (($x839526 (or (not ?W) (and ?R ?X ?Y))))
(let (($x494111 (or (not ?W) ?X)))
(let (($x41271 (or (not ?Z) (and ?W ?A1 ?B1) (and ?R ?C1 (not ?Y)))))
(let (($x134245 (or (not ?Z) (and ?A1 (not ?C1)) (and ?C1 (not ?A1)))))
(let (($x137156 (or (not ?D1) (and ?Z ?E1 (not ?F1)))))
(let (($x895308 (or (not ?D1) ?E1)))
(let (($x330666 (or (not ?G1) (and ?D1 ?H1 (<= ?I1 ?J1) (>= ?I1 ?J1)) (and ?Z ?K1 ?F1 (<= ?I1 ?L) (>= ?I1 ?L)))))
(let (($x865534 (or (not ?G1) (and ?H1 (not ?K1)) (and ?K1 (not ?H1)))))
(let (($x580049 (or (not ?L1) (and ?G1 ?M1 (not ?N1)))))
(let (($x384147 (or (not ?L1) ?M1)))
(let (($x783069 (or (not ?O1) (and ?L1 ?P1 ?F1))))
(let (($x327920 (or (not ?O1) ?P1)))
(let (($x128216 (or (not ?Q1) (and ?L1 ?R1 (not ?F1)))))
(let (($x348003 (or (not ?Q1) ?R1)))
(let (($x644287 (or (not ?S1) (and ?O1 ?T1 ?U1))))
(let (($x468053 (or (not ?S1) ?T1)))
(let (($x583990 (or (not ?V1) (and ?Q1 ?W1 ?X1))))
(let (($x55849 (or (not ?V1) ?W1)))
(let (($x447998 (>= ?C2 0.0)))
(let (($x905343 (<= ?C2 0.0)))
(let (($x552560 (and ?W ?I2 (not ?B1) (<= ?A2 0.0) (>= ?A2 0.0) (<= ?B2 ?L) (>= ?B2 ?L) $x905343 $x447998)))
(let (($x233115 (>= ?C2 ?E)))
(let (($x630814 (<= ?C2 ?E)))
(let (($x390067 (>= ?B2 ?I1)))
(let (($x159082 (<= ?B2 ?I1)))
(let (($x846219 (>= ?A2 ?D)))
(let (($x574938 (<= ?A2 ?D)))
(let (($x164682 (not ?Y1)))
(let (($x409670 (or $x164682 (and ?S1 ?Z1 $x574938 $x846219 $x159082 $x390067 (<= ?C2 ?D2) (>= ?C2 ?D2)) (and ?O1 ?E2 (not ?U1) $x574938 $x846219 $x159082 $x390067 $x630814 $x233115) (and ?V1 ?F2 $x574938 $x846219 $x159082 $x390067 $x630814 $x233115) (and ?Q1 ?G2 (not ?X1) $x574938 $x846219 $x159082 $x390067 $x905343 $x447998) (and ?G1 ?H2 ?N1 $x574938 $x846219 $x159082 $x390067 $x630814 $x233115) $x552560)))
(let (($x546218 (or $x164682 (and ?Z1 (not ?E2) (not ?F2) (not ?G2) (not ?H2) (not ?I2)) (and ?E2 (not ?Z1) (not ?F2) (not ?G2) (not ?H2) (not ?I2)) (and ?F2 (not ?Z1) (not ?E2) (not ?G2) (not ?H2) (not ?I2)) (and ?G2 (not ?Z1) (not ?E2) (not ?F2) (not ?H2) (not ?I2)) (and ?H2 (not ?Z1) (not ?E2) (not ?F2) (not ?G2) (not ?I2)) (and ?I2 (not ?Z1) (not ?E2) (not ?F2) (not ?G2) (not ?H2)))))
(let (($x322063 (or (not ?J2) (and ?Y1 ?K2 (not ?L2)))))
(let (($x546082 (or (not ?J2) ?K2)))
(let (($x322014 (= ?I (= ?N2 0.0))))
(let (($x585156 (= ?P2 (ite ?O2 1.0 0.0))))
(let (($x437766 (= ?Q (= ?Q2 0.0))))
(let (($x233770 (= ?U (ite ?R2 1.0 0.0))))
(let (($x99153 (= ?Y (= ?S2 0.0))))
(let (($x99355 (= ?B1 (= ?T2 0.0))))
(let (($x418842 (= ?U2 (not (<= ?L 0.0)))))
(let (($x489646 (= ?V2 (+ (~ 1.0) ?L))))
(let (($x89463 (= ?J1 (ite ?U2 ?V2 ?L))))
(let (($x287172 (= ?U1 (not (<= ?I1 1.0)))))
(let (($x386438 (= ?X1 (= ?I1 0.0))))
(let (($x240613 (= ?W2 (= ?T 0.0))))
(let (($x463487 (= ?X2 (= ?T 0.0))))
(let (($x254564 (= ?Y2 (= ?C2 0.0))))
(let (($x579632 (= ?L2 (or ?Y2 ?X2))))
(let (($x865308 (|cp-rel-bb1.i.i| ?A ?B ?C ?D ?E)))
(let (($x299492 (and $x865308 $x579632 $x254564 $x463487 (= ?D2 (ite ?W2 1.0 ?E)) $x240613 $x386438 $x287172 (= ?N1 (= ?D 0.0)) $x89463 $x489646 $x418842 (= ?F1 (= ?E 0.0)) $x99355 $x99153 $x233770 (= ?R2 (= ?A 0.0)) $x437766 (= ?M (+ ?P2 ?B)) $x585156 (= ?O2 (not (<= 2.0 ?B))) $x322014 (not (= ?M2 true)) (= ?J2 true) $x546082 $x322063 $x546218 $x409670 $x55849 $x583990 $x468053 $x644287 $x348003 $x128216 $x327920 $x783069 $x384147 $x580049 $x865534 $x330666 $x895308 $x137156 $x134245 $x41271 $x494111 $x839526 $x799199 $x313844 $x416309 $x99963 $x222102 $x166831 $x628228 $x86256 (= ?M2 (= ?C 0.0)))))
(=> $x299492 |cp-rel-bb2.i.i34.i.i|)))))))))))))))))))))))))))))))))))))))))))))))))))))))))))))
)
(assert (not cp-rel-bb2.i.i34.i.i))
(check-sat)
